Version identifier: 22.1.1.0 | 2022-11-28 | 9160aff4d
CPXPARAM_Read_DataCheck                          1
CPXPARAM_MIP_Cuts_Covers                         1
CPXPARAM_MIP_Cuts_FlowCovers                     1
CPXPARAM_MIP_Cuts_MIRCut                         1
CPXPARAM_TimeLimit                               265
Tried aggregator 1 time.
MIP Presolve eliminated 10 rows and 3 columns.
MIP Presolve added 6 rows and 0 columns.
MIP Presolve modified 12626 coefficients.
Reduced MIP has 3873 rows, 5603 columns, and 32338 nonzeros.
Reduced MIP has 5544 binaries, 0 generals, 0 SOSs, and 0 indicators.
Presolve time = 0.01 sec. (21.62 ticks)
Probing time = 0.01 sec. (4.80 ticks)
Tried aggregator 1 time.
Detecting symmetries...
Reduced MIP has 3873 rows, 5603 columns, and 32338 nonzeros.
Reduced MIP has 5544 binaries, 0 generals, 0 SOSs, and 0 indicators.
Presolve time = 0.01 sec. (17.37 ticks)
Probing time = 0.00 sec. (4.54 ticks)
Clique table members: 19086.
MIP emphasis: balance optimality and feasibility.
MIP search method: dynamic search.
Parallel mode: deterministic, using up to 12 threads.
Root relaxation solution time = 0.07 sec. (47.91 ticks)

        Nodes                                         Cuts/
   Node  Left     Objective  IInf  Best Integer    Best Bound    ItCnt     Gap

      0     0     1981.7062   154                   1981.7062      798         
      0     0     2220.0007   126                   Cuts: 164     1048         
      0     0     2307.6870    68                   Cuts: 161     1219         
      0     0     2322.5396    96                    Cuts: 44     1350         
      0     0     2331.0056   109                   Cuts: 125     1446         
      0     0     2331.3191   123                    Cuts: 60     1513         
Detecting symmetries...
      0     0     2331.3191   125                    Cuts: 35     1558         
      0     0     2331.3191   112                     Cuts: 3     1565         
      0     0     2338.0085    83                    Cuts: 62     1646         
      0     0     2338.6316   101                   Cuts: 129     1720         
      0     0     2338.7500    78                   Cuts: 403     1762         
      0     0     2338.7500    78                    Cuts: 80     1777         
*     0+    0                         3081.0000     2338.7500            24.09%
Detecting symmetries...
      0     2     2338.7500    70     3081.0000     2338.7500     1777   24.09%
Elapsed time = 2.71 sec. (2885.59 ticks, tree = 0.02 MB, solutions = 1)
    271   217     2362.5938    44     3081.0000     2338.7500     8267   24.09%
    556   458     2384.3888    41     3081.0000     2338.7500    19754   24.09%
    884   757     2608.3846    39     3081.0000     2338.7500    36439   24.09%
*  1243  1028      integral     0     2735.0000     2338.7500    50572   14.49%
   1317  1044     2340.5881    52     2735.0000     2338.7500    53911   14.49%
   1776  1374     2387.9983    71     2735.0000     2338.7500    70142   14.49%
   2193  1780     2365.3065    60     2735.0000     2338.7500    89795   14.49%
   2534  2152     2371.3737    76     2735.0000     2338.7500   111908   14.49%
   3047  2302     2346.7143    72     2735.0000     2338.7500   122294   14.49%
   3514  3017     2354.6667    23     2735.0000     2338.7500   151750   14.49%
*  5243+ 3389                         2664.0000     2340.2928            12.15%
   5321  4629     2371.7122    32     2664.0000     2340.2928   205152   12.15%
Elapsed time = 6.86 sec. (5990.47 ticks, tree = 16.32 MB, solutions = 3)

Performing restart 1

Repeating presolve.
Tried aggregator 1 time.
MIP Presolve eliminated 2286 rows and 2369 columns.
MIP Presolve modified 4817 coefficients.
Reduced MIP has 1587 rows, 3234 columns, and 14982 nonzeros.
Reduced MIP has 3175 binaries, 0 generals, 0 SOSs, and 0 indicators.
Presolve time = 0.02 sec. (18.67 ticks)
Tried aggregator 1 time.
Reduced MIP has 1587 rows, 3234 columns, and 14982 nonzeros.
Reduced MIP has 3175 binaries, 0 generals, 0 SOSs, and 0 indicators.
Presolve time = 0.01 sec. (8.88 ticks)
Represolve time = 0.06 sec. (55.83 ticks)
   6536     0     2345.7899   102     2664.0000     Cuts: 121   263098   11.94%
   6536     0     2347.4579   106     2664.0000      Cuts: 96   263216   11.88%
   6536     0     2349.2136   129     2664.0000      Cuts: 97   263407   11.82%
*  6536+    0                         2659.0000     2349.2136            11.65%
   6536     0     2349.2136   134     2659.0000      Cuts: 97   263483   11.49%
   6536     0     2349.2136   122     2659.0000      Cuts: 28   263546   11.49%
*  6536+    0                         2454.0000     2353.4912             4.10%
   6536     0     2349.2136   127     2454.0000      Cuts: 57   263597    3.89%
*  6536+    0                         2388.0000     2358.6000             1.23%
   6536     0     2349.3219   108     2388.0000      Cuts: 11   263633    1.22%

Repeating presolve.
Tried aggregator 2 times.
MIP Presolve eliminated 59 rows and 1008 columns.
MIP Presolve added 4 rows and 0 columns.
MIP Presolve modified 1117 coefficients.
Aggregator did 1 substitutions.
Reduced MIP has 1531 rows, 2225 columns, and 13387 nonzeros.
Reduced MIP has 2166 binaries, 0 generals, 0 SOSs, and 0 indicators.
Presolve time = 0.02 sec. (18.62 ticks)
Tried aggregator 2 times.
MIP Presolve eliminated 56 rows and 51 columns.
MIP Presolve added 2 rows and 0 columns.
MIP Presolve modified 266 coefficients.
Aggregator did 3 substitutions.
Reduced MIP has 1474 rows, 2171 columns, and 13030 nonzeros.
Reduced MIP has 2113 binaries, 0 generals, 0 SOSs, and 0 indicators.
Presolve time = 0.01 sec. (14.11 ticks)
Tried aggregator 1 time.
Reduced MIP has 1474 rows, 2171 columns, and 13030 nonzeros.
Reduced MIP has 2113 binaries, 0 generals, 0 SOSs, and 0 indicators.
Presolve time = 0.01 sec. (7.46 ticks)
Represolve time = 0.15 sec. (121.53 ticks)
   6536     0     2349.9506   129     2388.0000      Cuts: 76   264700    1.22%
   6536     0     2349.9506   115     2388.0000      Cuts: 78   264774    1.22%
   6536     0     2349.9506   128     2388.0000      Cuts: 57   264850    1.22%
   6536     0     2349.9506   125     2388.0000      Cuts: 21   264873    1.22%
   6536     0     2349.9506   128     2388.0000      Cuts: 39   264949    1.22%
   6536     2     2349.9506   120     2388.0000     2358.8936   264949    1.22%
*  7152   186      integral     0     2380.0000     2358.8936   285627    0.89%

GUB cover cuts applied:  22
Clique cuts applied:  3
Cover cuts applied:  4
Implied bound cuts applied:  4
Flow cuts applied:  2
Mixed integer rounding cuts applied:  99
Zero-half cuts applied:  21
Lift and project cuts applied:  14
Gomory fractional cuts applied:  21

Root node processing (before b&c):
  Real time             =    2.69 sec. (2873.69 ticks)
Parallel b&c, 12 threads:
  Real time             =    9.31 sec. (7889.91 ticks)
  Sync time (average)   =    1.15 sec.
  Wait time (average)   =    0.01 sec.
                          ------------
Total (root+branch&cut) =   12.00 sec. (10763.60 ticks)
